c Generated map
c Size: 9 * 9, weights in range: 1 to 10, walls: True, with ratio 0.05
c dim 3 of 7
c
p sp 81 131
c graph contains 81 nodes and 131 arcs
c
a 1 10 1
a 10 1 1
a 1 2 4
a 2 1 4
a 2 11 6
a 11 2 6
a 2 3 2
a 3 2 2
a 3 12 8
a 12 3 8
a 5 14 8
a 14 5 8
a 5 6 7
a 6 5 7
a 6 15 9
a 15 6 9
a 6 7 2
a 7 6 2
a 7 16 4
a 16 7 4
a 9 18 2
a 18 9 2
a 10 19 10
a 19 10 10
a 10 11 1
a 11 10 1
a 11 20 10
a 20 11 10
a 11 12 10
a 12 11 10
a 12 21 8
a 21 12 8
a 12 13 10
a 13 12 10
a 13 22 9
a 22 13 9
a 13 14 10
a 14 13 10
a 14 23 5
a 23 14 5
a 14 15 9
a 15 14 9
a 15 24 5
a 24 15 5
a 15 16 4
a 16 15 4
a 16 25 10
a 25 16 10
a 16 17 2
a 17 16 2
a 17 26 5
a 26 17 5
a 17 18 1
a 18 17 1
a 18 27 5
a 27 18 5
a 19 20 9
a 20 19 9
a 20 29 7
a 29 20 7
a 20 21 9
a 21 20 9
a 21 30 7
a 30 21 7
a 21 22 10
a 22 21 10
a 22 31 10
a 31 22 10
a 22 23 6
a 23 22 6
a 23 32 7
a 32 23 7
a 23 24 3
a 24 23 3
a 24 33 5
a 33 24 5
a 24 25 2
a 25 24 2
a 25 34 6
a 34 25 6
a 25 26 5
a 26 25 5
a 26 35 3
a 35 26 3
a 26 27 6
a 27 26 6
a 27 36 2
a 36 27 2
a 29 38 9
a 38 29 9
a 29 30 9
a 30 29 9
a 30 39 2
a 39 30 2
a 30 31 8
a 31 30 8
a 31 40 4
a 40 31 4
a 31 32 1
a 32 31 1
a 32 41 1
a 41 32 1
a 32 33 8
a 33 32 8
a 33 42 6
a 42 33 6
a 33 34 8
a 34 33 8
a 34 43 2
a 43 34 2
a 34 35 5
a 35 34 5
a 35 44 5
a 44 35 5
a 35 36 4
a 36 35 4
a 36 45 2
a 45 36 2
a 37 46 2
a 46 37 2
a 37 38 7
a 38 37 7
a 38 47 2
a 47 38 2
a 38 39 3
a 39 38 3
a 39 48 3
a 48 39 3
a 39 40 5
a 40 39 5
a 40 49 2
a 49 40 2
a 40 41 7
a 41 40 7
a 41 50 6
a 50 41 6
a 41 42 5
a 42 41 5
a 42 51 7
a 51 42 7
a 42 43 2
a 43 42 2
a 43 52 6
a 52 43 6
a 43 44 4
a 44 43 4
a 44 53 8
a 53 44 8
a 44 45 5
a 45 44 5
a 45 54 8
a 54 45 8
a 46 55 1
a 55 46 1
a 46 47 2
a 47 46 2
a 47 56 8
a 56 47 8
a 47 48 7
a 48 47 7
a 48 57 7
a 57 48 7
a 48 49 5
a 49 48 5
a 49 58 5
a 58 49 5
a 49 50 6
a 50 49 6
a 50 59 2
a 59 50 2
a 50 51 2
a 51 50 2
a 51 60 3
a 60 51 3
a 51 52 9
a 52 51 9
a 52 61 7
a 61 52 7
a 52 53 1
a 53 52 1
a 53 62 7
a 62 53 7
a 53 54 8
a 54 53 8
a 54 63 5
a 63 54 5
a 55 64 6
a 64 55 6
a 55 56 6
a 56 55 6
a 56 65 1
a 65 56 1
a 56 57 4
a 57 56 4
a 57 66 3
a 66 57 3
a 57 58 3
a 58 57 3
a 58 59 3
a 59 58 3
a 59 68 10
a 68 59 10
a 59 60 7
a 60 59 7
a 60 69 10
a 69 60 10
a 60 61 4
a 61 60 4
a 61 70 4
a 70 61 4
a 61 62 3
a 62 61 3
a 62 71 10
a 71 62 10
a 62 63 5
a 63 62 5
a 63 72 9
a 72 63 9
a 64 73 10
a 73 64 10
a 64 65 3
a 65 64 3
a 65 74 6
a 74 65 6
a 65 66 3
a 66 65 3
a 66 75 9
a 75 66 9
a 68 77 9
a 77 68 9
a 68 69 6
a 69 68 6
a 69 78 4
a 78 69 4
a 69 70 2
a 70 69 2
a 70 79 9
a 79 70 9
a 70 71 6
a 71 70 6
a 71 80 8
a 80 71 8
a 71 72 4
a 72 71 4
a 72 81 7
a 81 72 7
a 73 74 5
a 74 73 5
a 74 75 1
a 75 74 1
a 75 76 1
a 76 75 1
a 76 77 2
a 77 76 2
a 77 78 7
a 78 77 7
a 78 79 7
a 79 78 7
a 79 80 4
a 80 79 4
a 80 81 1
a 81 80 1
